c Random generated cnf formula, satisfiable: true
p cnf 10 50
-4 -2 -10 0
7 8 -1 0
-10 -4 -3 0
-8 6 -10 0
4 1 -2 0
-3 4 -2 0
-7 2 5 0
10 7 8 0
6 8 1 0
4 -9 2 0
-8 2 3 0
7 8 6 0
5 -9 8 0
9 10 5 0
-3 -10 -7 0
5 3 -1 0
-5 1 9 0
6 10 -7 0
7 -4 -3 0
1 6 -5 0
2 10 7 0
7 -8 -2 0
10 7 -6 0
-6 1 -5 0
9 4 -5 0
-7 10 5 0
5 7 6 0
-8 -2 5 0
-8 10 -7 0
-9 2 5 0
-4 -6 10 0
7 -4 2 0
8 -6 -5 0
5 4 9 0
1 4 -8 0
9 -7 8 0
6 9 5 0
1 10 9 0
-6 -3 -4 0
5 -8 -2 0
7 -3 8 0
3 8 7 0
7 -5 1 0
10 -6 -9 0
6 5 -1 0
4 -7 1 0
9 -7 -1 0
1 5 -9 0
-5 -9 -6 0
1 -7 10 0
